Minimize
 obj:  [ 26 x0_1 * x1_2 ]/2 +  [ 26 x1_1 * x0_2 ]/2 +  [ 26 x0_2 * x1_3 ]/2 +  [ 26 x1_2 * x0_3 ]/2 +  [ 26 x0_3 * x1_4 ]/2 +  [ 26 x1_3 * x0_4 ]/2 +  [ 26 x0_4 * x1_5 ]/2 +  [ 26 x1_4 * x0_5 ]/2 +  [ 26 x0_5 * x1_6 ]/2 +  [ 26 x1_5 * x0_6 ]/2 +  [ 26 x0_6 * x1_7 ]/2 +  [ 26 x1_6 * x0_7 ]/2 +  [ 26 x0_7 * x1_8 ]/2 +  [ 26 x1_7 * x0_8 ]/2 +  [ 26 x0_8 * x1_9 ]/2 +  [ 26 x1_8 * x0_9 ]/2 +  [ 36 x0_1 * x2_2 ]/2 +  [ 36 x2_1 * x0_2 ]/2 +  [ 36 x0_2 * x2_3 ]/2 +  [ 36 x2_2 * x0_3 ]/2 +  [ 36 x0_3 * x2_4 ]/2 +  [ 36 x2_3 * x0_4 ]/2 +  [ 36 x0_4 * x2_5 ]/2 +  [ 36 x2_4 * x0_5 ]/2 +  [ 36 x0_5 * x2_6 ]/2 +  [ 36 x2_5 * x0_6 ]/2 +  [ 36 x0_6 * x2_7 ]/2 +  [ 36 x2_6 * x0_7 ]/2 +  [ 36 x0_7 * x2_8 ]/2 +  [ 36 x2_7 * x0_8 ]/2 +  [ 36 x0_8 * x2_9 ]/2 +  [ 36 x2_8 * x0_9 ]/2 +  [ 20 x0_1 * x3_2 ]/2 +  [ 20 x3_1 * x0_2 ]/2 +  [ 20 x0_2 * x3_3 ]/2 +  [ 20 x3_2 * x0_3 ]/2 +  [ 20 x0_3 * x3_4 ]/2 +  [ 20 x3_3 * x0_4 ]/2 +  [ 20 x0_4 * x3_5 ]/2 +  [ 20 x3_4 * x0_5 ]/2 +  [ 20 x0_5 * x3_6 ]/2 +  [ 20 x3_5 * x0_6 ]/2 +  [ 20 x0_6 * x3_7 ]/2 +  [ 20 x3_6 * x0_7 ]/2 +  [ 20 x0_7 * x3_8 ]/2 +  [ 20 x3_7 * x0_8 ]/2 +  [ 20 x0_8 * x3_9 ]/2 +  [ 20 x3_8 * x0_9 ]/2 +  [ 18 x0_1 * x4_2 ]/2 +  [ 18 x4_1 * x0_2 ]/2 +  [ 18 x0_2 * x4_3 ]/2 +  [ 18 x4_2 * x0_3 ]/2 +  [ 18 x0_3 * x4_4 ]/2 +  [ 18 x4_3 * x0_4 ]/2 +  [ 18 x0_4 * x4_5 ]/2 +  [ 18 x4_4 * x0_5 ]/2 +  [ 18 x0_5 * x4_6 ]/2 +  [ 18 x4_5 * x0_6 ]/2 +  [ 18 x0_6 * x4_7 ]/2 +  [ 18 x4_6 * x0_7 ]/2 +  [ 18 x0_7 * x4_8 ]/2 +  [ 18 x4_7 * x0_8 ]/2 +  [ 18 x0_8 * x4_9 ]/2 +  [ 18 x4_8 * x0_9 ]/2 +  [ 22 x0_1 * x5_2 ]/2 +  [ 22 x5_1 * x0_2 ]/2 +  [ 22 x0_2 * x5_3 ]/2 +  [ 22 x5_2 * x0_3 ]/2 +  [ 22 x0_3 * x5_4 ]/2 +  [ 22 x5_3 * x0_4 ]/2 +  [ 22 x0_4 * x5_5 ]/2 +  [ 22 x5_4 * x0_5 ]/2 +  [ 22 x0_5 * x5_6 ]/2 +  [ 22 x5_5 * x0_6 ]/2 +  [ 22 x0_6 * x5_7 ]/2 +  [ 22 x5_6 * x0_7 ]/2 +  [ 22 x0_7 * x5_8 ]/2 +  [ 22 x5_7 * x0_8 ]/2 +  [ 22 x0_8 * x5_9 ]/2 +  [ 22 x5_8 * x0_9 ]/2 +  [ 40 x0_1 * x6_2 ]/2 +  [ 40 x6_1 * x0_2 ]/2 +  [ 40 x0_2 * x6_3 ]/2 +  [ 40 x6_2 * x0_3 ]/2 +  [ 40 x0_3 * x6_4 ]/2 +  [ 40 x6_3 * x0_4 ]/2 +  [ 40 x0_4 * x6_5 ]/2 +  [ 40 x6_4 * x0_5 ]/2 +  [ 40 x0_5 * x6_6 ]/2 +  [ 40 x6_5 * x0_6 ]/2 +  [ 40 x0_6 * x6_7 ]/2 +  [ 40 x6_6 * x0_7 ]/2 +  [ 40 x0_7 * x6_8 ]/2 +  [ 40 x6_7 * x0_8 ]/2 +  [ 40 x0_8 * x6_9 ]/2 +  [ 40 x6_8 * x0_9 ]/2 +  [ 34 x0_1 * x7_2 ]/2 +  [ 34 x7_1 * x0_2 ]/2 +  [ 34 x0_2 * x7_3 ]/2 +  [ 34 x7_2 * x0_3 ]/2 +  [ 34 x0_3 * x7_4 ]/2 +  [ 34 x7_3 * x0_4 ]/2 +  [ 34 x0_4 * x7_5 ]/2 +  [ 34 x7_4 * x0_5 ]/2 +  [ 34 x0_5 * x7_6 ]/2 +  [ 34 x7_5 * x0_6 ]/2 +  [ 34 x0_6 * x7_7 ]/2 +  [ 34 x7_6 * x0_7 ]/2 +  [ 34 x0_7 * x7_8 ]/2 +  [ 34 x7_7 * x0_8 ]/2 +  [ 34 x0_8 * x7_9 ]/2 +  [ 34 x7_8 * x0_9 ]/2 +  [ 26 x0_1 * x8_2 ]/2 +  [ 26 x8_1 * x0_2 ]/2 +  [ 26 x0_2 * x8_3 ]/2 +  [ 26 x8_2 * x0_3 ]/2 +  [ 26 x0_3 * x8_4 ]/2 +  [ 26 x8_3 * x0_4 ]/2 +  [ 26 x0_4 * x8_5 ]/2 +  [ 26 x8_4 * x0_5 ]/2 +  [ 26 x0_5 * x8_6 ]/2 +  [ 26 x8_5 * x0_6 ]/2 +  [ 26 x0_6 * x8_7 ]/2 +  [ 26 x8_6 * x0_7 ]/2 +  [ 26 x0_7 * x8_8 ]/2 +  [ 26 x8_7 * x0_8 ]/2 +  [ 26 x0_8 * x8_9 ]/2 +  [ 26 x8_8 * x0_9 ]/2 +  [ 2 x1_1 * x2_2 ]/2 +  [ 2 x2_1 * x1_2 ]/2 +  [ 2 x1_2 * x2_3 ]/2 +  [ 2 x2_2 * x1_3 ]/2 +  [ 2 x1_3 * x2_4 ]/2 +  [ 2 x2_3 * x1_4 ]/2 +  [ 2 x1_4 * x2_5 ]/2 +  [ 2 x2_4 * x1_5 ]/2 +  [ 2 x1_5 * x2_6 ]/2 +  [ 2 x2_5 * x1_6 ]/2 +  [ 2 x1_6 * x2_7 ]/2 +  [ 2 x2_6 * x1_7 ]/2 +  [ 2 x1_7 * x2_8 ]/2 +  [ 2 x2_7 * x1_8 ]/2 +  [ 2 x1_8 * x2_9 ]/2 +  [ 2 x2_8 * x1_9 ]/2 +  [ 2 x1_1 * x3_2 ]/2 +  [ 2 x3_1 * x1_2 ]/2 +  [ 2 x1_2 * x3_3 ]/2 +  [ 2 x3_2 * x1_3 ]/2 +  [ 2 x1_3 * x3_4 ]/2 +  [ 2 x3_3 * x1_4 ]/2 +  [ 2 x1_4 * x3_5 ]/2 +  [ 2 x3_4 * x1_5 ]/2 +  [ 2 x1_5 * x3_6 ]/2 +  [ 2 x3_5 * x1_6 ]/2 +  [ 2 x1_6 * x3_7 ]/2 +  [ 2 x3_6 * x1_7 ]/2 +  [ 2 x1_7 * x3_8 ]/2 +  [ 2 x3_7 * x1_8 ]/2 +  [ 2 x1_8 * x3_9 ]/2 +  [ 2 x3_8 * x1_9 ]/2 +  [ 40 x1_1 * x4_2 ]/2 +  [ 40 x4_1 * x1_2 ]/2 +  [ 40 x1_2 * x4_3 ]/2 +  [ 40 x4_2 * x1_3 ]/2 +  [ 40 x1_3 * x4_4 ]/2 +  [ 40 x4_3 * x1_4 ]/2 +  [ 40 x1_4 * x4_5 ]/2 +  [ 40 x4_4 * x1_5 ]/2 +  [ 40 x1_5 * x4_6 ]/2 +  [ 40 x4_5 * x1_6 ]/2 +  [ 40 x1_6 * x4_7 ]/2 +  [ 40 x4_6 * x1_7 ]/2 +  [ 40 x1_7 * x4_8 ]/2 +  [ 40 x4_7 * x1_8 ]/2 +  [ 40 x1_8 * x4_9 ]/2 +  [ 40 x4_8 * x1_9 ]/2 +  [ 8 x1_1 * x5_2 ]/2 +  [ 8 x5_1 * x1_2 ]/2 +  [ 8 x1_2 * x5_3 ]/2 +  [ 8 x5_2 * x1_3 ]/2 +  [ 8 x1_3 * x5_4 ]/2 +  [ 8 x5_3 * x1_4 ]/2 +  [ 8 x1_4 * x5_5 ]/2 +  [ 8 x5_4 * x1_5 ]/2 +  [ 8 x1_5 * x5_6 ]/2 +  [ 8 x5_5 * x1_6 ]/2 +  [ 8 x1_6 * x5_7 ]/2 +  [ 8 x5_6 * x1_7 ]/2 +  [ 8 x1_7 * x5_8 ]/2 +  [ 8 x5_7 * x1_8 ]/2 +  [ 8 x1_8 * x5_9 ]/2 +  [ 8 x5_8 * x1_9 ]/2 +  [ 26 x1_1 * x6_2 ]/2 +  [ 26 x6_1 * x1_2 ]/2 +  [ 26 x1_2 * x6_3 ]/2 +  [ 26 x6_2 * x1_3 ]/2 +  [ 26 x1_3 * x6_4 ]/2 +  [ 26 x6_3 * x1_4 ]/2 +  [ 26 x1_4 * x6_5 ]/2 +  [ 26 x6_4 * x1_5 ]/2 +  [ 26 x1_5 * x6_6 ]/2 +  [ 26 x6_5 * x1_6 ]/2 +  [ 26 x1_6 * x6_7 ]/2 +  [ 26 x6_6 * x1_7 ]/2 +  [ 26 x1_7 * x6_8 ]/2 +  [ 26 x6_7 * x1_8 ]/2 +  [ 26 x1_8 * x6_9 ]/2 +  [ 26 x6_8 * x1_9 ]/2 +  [ 16 x1_1 * x7_2 ]/2 +  [ 16 x7_1 * x1_2 ]/2 +  [ 16 x1_2 * x7_3 ]/2 +  [ 16 x7_2 * x1_3 ]/2 +  [ 16 x1_3 * x7_4 ]/2 +  [ 16 x7_3 * x1_4 ]/2 +  [ 16 x1_4 * x7_5 ]/2 +  [ 16 x7_4 * x1_5 ]/2 +  [ 16 x1_5 * x7_6 ]/2 +  [ 16 x7_5 * x1_6 ]/2 +  [ 16 x1_6 * x7_7 ]/2 +  [ 16 x7_6 * x1_7 ]/2 +  [ 16 x1_7 * x7_8 ]/2 +  [ 16 x7_7 * x1_8 ]/2 +  [ 16 x1_8 * x7_9 ]/2 +  [ 16 x7_8 * x1_9 ]/2 +  [ 40 x1_1 * x8_2 ]/2 +  [ 40 x8_1 * x1_2 ]/2 +  [ 40 x1_2 * x8_3 ]/2 +  [ 40 x8_2 * x1_3 ]/2 +  [ 40 x1_3 * x8_4 ]/2 +  [ 40 x8_3 * x1_4 ]/2 +  [ 40 x1_4 * x8_5 ]/2 +  [ 40 x8_4 * x1_5 ]/2 +  [ 40 x1_5 * x8_6 ]/2 +  [ 40 x8_5 * x1_6 ]/2 +  [ 40 x1_6 * x8_7 ]/2 +  [ 40 x8_6 * x1_7 ]/2 +  [ 40 x1_7 * x8_8 ]/2 +  [ 40 x8_7 * x1_8 ]/2 +  [ 40 x1_8 * x8_9 ]/2 +  [ 40 x8_8 * x1_9 ]/2 +  [ 28 x2_1 * x3_2 ]/2 +  [ 28 x3_1 * x2_2 ]/2 +  [ 28 x2_2 * x3_3 ]/2 +  [ 28 x3_2 * x2_3 ]/2 +  [ 28 x2_3 * x3_4 ]/2 +  [ 28 x3_3 * x2_4 ]/2 +  [ 28 x2_4 * x3_5 ]/2 +  [ 28 x3_4 * x2_5 ]/2 +  [ 28 x2_5 * x3_6 ]/2 +  [ 28 x3_5 * x2_6 ]/2 +  [ 28 x2_6 * x3_7 ]/2 +  [ 28 x3_6 * x2_7 ]/2 +  [ 28 x2_7 * x3_8 ]/2 +  [ 28 x3_7 * x2_8 ]/2 +  [ 28 x2_8 * x3_9 ]/2 +  [ 28 x3_8 * x2_9 ]/2 +  [ 20 x2_1 * x4_2 ]/2 +  [ 20 x4_1 * x2_2 ]/2 +  [ 20 x2_2 * x4_3 ]/2 +  [ 20 x4_2 * x2_3 ]/2 +  [ 20 x2_3 * x4_4 ]/2 +  [ 20 x4_3 * x2_4 ]/2 +  [ 20 x2_4 * x4_5 ]/2 +  [ 20 x4_4 * x2_5 ]/2 +  [ 20 x2_5 * x4_6 ]/2 +  [ 20 x4_5 * x2_6 ]/2 +  [ 20 x2_6 * x4_7 ]/2 +  [ 20 x4_6 * x2_7 ]/2 +  [ 20 x2_7 * x4_8 ]/2 +  [ 20 x4_7 * x2_8 ]/2 +  [ 20 x2_8 * x4_9 ]/2 +  [ 20 x4_8 * x2_9 ]/2 +  [ 32 x2_1 * x5_2 ]/2 +  [ 32 x5_1 * x2_2 ]/2 +  [ 32 x2_2 * x5_3 ]/2 +  [ 32 x5_2 * x2_3 ]/2 +  [ 32 x2_3 * x5_4 ]/2 +  [ 32 x5_3 * x2_4 ]/2 +  [ 32 x2_4 * x5_5 ]/2 +  [ 32 x5_4 * x2_5 ]/2 +  [ 32 x2_5 * x5_6 ]/2 +  [ 32 x5_5 * x2_6 ]/2 +  [ 32 x2_6 * x5_7 ]/2 +  [ 32 x5_6 * x2_7 ]/2 +  [ 32 x2_7 * x5_8 ]/2 +  [ 32 x5_7 * x2_8 ]/2 +  [ 32 x2_8 * x5_9 ]/2 +  [ 32 x5_8 * x2_9 ]/2 +  [ 8 x2_1 * x6_2 ]/2 +  [ 8 x6_1 * x2_2 ]/2 +  [ 8 x2_2 * x6_3 ]/2 +  [ 8 x6_2 * x2_3 ]/2 +  [ 8 x2_3 * x6_4 ]/2 +  [ 8 x6_3 * x2_4 ]/2 +  [ 8 x2_4 * x6_5 ]/2 +  [ 8 x6_4 * x2_5 ]/2 +  [ 8 x2_5 * x6_6 ]/2 +  [ 8 x6_5 * x2_6 ]/2 +  [ 8 x2_6 * x6_7 ]/2 +  [ 8 x6_6 * x2_7 ]/2 +  [ 8 x2_7 * x6_8 ]/2 +  [ 8 x6_7 * x2_8 ]/2 +  [ 8 x2_8 * x6_9 ]/2 +  [ 8 x6_8 * x2_9 ]/2 +  [ 34 x2_1 * x7_2 ]/2 +  [ 34 x7_1 * x2_2 ]/2 +  [ 34 x2_2 * x7_3 ]/2 +  [ 34 x7_2 * x2_3 ]/2 +  [ 34 x2_3 * x7_4 ]/2 +  [ 34 x7_3 * x2_4 ]/2 +  [ 34 x2_4 * x7_5 ]/2 +  [ 34 x7_4 * x2_5 ]/2 +  [ 34 x2_5 * x7_6 ]/2 +  [ 34 x7_5 * x2_6 ]/2 +  [ 34 x2_6 * x7_7 ]/2 +  [ 34 x7_6 * x2_7 ]/2 +  [ 34 x2_7 * x7_8 ]/2 +  [ 34 x7_7 * x2_8 ]/2 +  [ 34 x2_8 * x7_9 ]/2 +  [ 34 x7_8 * x2_9 ]/2 +  [ 32 x2_1 * x8_2 ]/2 +  [ 32 x8_1 * x2_2 ]/2 +  [ 32 x2_2 * x8_3 ]/2 +  [ 32 x8_2 * x2_3 ]/2 +  [ 32 x2_3 * x8_4 ]/2 +  [ 32 x8_3 * x2_4 ]/2 +  [ 32 x2_4 * x8_5 ]/2 +  [ 32 x8_4 * x2_5 ]/2 +  [ 32 x2_5 * x8_6 ]/2 +  [ 32 x8_5 * x2_6 ]/2 +  [ 32 x2_6 * x8_7 ]/2 +  [ 32 x8_6 * x2_7 ]/2 +  [ 32 x2_7 * x8_8 ]/2 +  [ 32 x8_7 * x2_8 ]/2 +  [ 32 x2_8 * x8_9 ]/2 +  [ 32 x8_8 * x2_9 ]/2 +  [ 36 x3_1 * x4_2 ]/2 +  [ 36 x4_1 * x3_2 ]/2 +  [ 36 x3_2 * x4_3 ]/2 +  [ 36 x4_2 * x3_3 ]/2 +  [ 36 x3_3 * x4_4 ]/2 +  [ 36 x4_3 * x3_4 ]/2 +  [ 36 x3_4 * x4_5 ]/2 +  [ 36 x4_4 * x3_5 ]/2 +  [ 36 x3_5 * x4_6 ]/2 +  [ 36 x4_5 * x3_6 ]/2 +  [ 36 x3_6 * x4_7 ]/2 +  [ 36 x4_6 * x3_7 ]/2 +  [ 36 x3_7 * x4_8 ]/2 +  [ 36 x4_7 * x3_8 ]/2 +  [ 36 x3_8 * x4_9 ]/2 +  [ 36 x4_8 * x3_9 ]/2 +  [ 2 x3_1 * x5_2 ]/2 +  [ 2 x5_1 * x3_2 ]/2 +  [ 2 x3_2 * x5_3 ]/2 +  [ 2 x5_2 * x3_3 ]/2 +  [ 2 x3_3 * x5_4 ]/2 +  [ 2 x5_3 * x3_4 ]/2 +  [ 2 x3_4 * x5_5 ]/2 +  [ 2 x5_4 * x3_5 ]/2 +  [ 2 x3_5 * x5_6 ]/2 +  [ 2 x5_5 * x3_6 ]/2 +  [ 2 x3_6 * x5_7 ]/2 +  [ 2 x5_6 * x3_7 ]/2 +  [ 2 x3_7 * x5_8 ]/2 +  [ 2 x5_7 * x3_8 ]/2 +  [ 2 x3_8 * x5_9 ]/2 +  [ 2 x5_8 * x3_9 ]/2 +  [ 2 x3_1 * x6_2 ]/2 +  [ 2 x6_1 * x3_2 ]/2 +  [ 2 x3_2 * x6_3 ]/2 +  [ 2 x6_2 * x3_3 ]/2 +  [ 2 x3_3 * x6_4 ]/2 +  [ 2 x6_3 * x3_4 ]/2 +  [ 2 x3_4 * x6_5 ]/2 +  [ 2 x6_4 * x3_5 ]/2 +  [ 2 x3_5 * x6_6 ]/2 +  [ 2 x6_5 * x3_6 ]/2 +  [ 2 x3_6 * x6_7 ]/2 +  [ 2 x6_6 * x3_7 ]/2 +  [ 2 x3_7 * x6_8 ]/2 +  [ 2 x6_7 * x3_8 ]/2 +  [ 2 x3_8 * x6_9 ]/2 +  [ 2 x6_8 * x3_9 ]/2 +  [ 12 x3_1 * x7_2 ]/2 +  [ 12 x7_1 * x3_2 ]/2 +  [ 12 x3_2 * x7_3 ]/2 +  [ 12 x7_2 * x3_3 ]/2 +  [ 12 x3_3 * x7_4 ]/2 +  [ 12 x7_3 * x3_4 ]/2 +  [ 12 x3_4 * x7_5 ]/2 +  [ 12 x7_4 * x3_5 ]/2 +  [ 12 x3_5 * x7_6 ]/2 +  [ 12 x7_5 * x3_6 ]/2 +  [ 12 x3_6 * x7_7 ]/2 +  [ 12 x7_6 * x3_7 ]/2 +  [ 12 x3_7 * x7_8 ]/2 +  [ 12 x7_7 * x3_8 ]/2 +  [ 12 x3_8 * x7_9 ]/2 +  [ 12 x7_8 * x3_9 ]/2 +  [ 30 x3_1 * x8_2 ]/2 +  [ 30 x8_1 * x3_2 ]/2 +  [ 30 x3_2 * x8_3 ]/2 +  [ 30 x8_2 * x3_3 ]/2 +  [ 30 x3_3 * x8_4 ]/2 +  [ 30 x8_3 * x3_4 ]/2 +  [ 30 x3_4 * x8_5 ]/2 +  [ 30 x8_4 * x3_5 ]/2 +  [ 30 x3_5 * x8_6 ]/2 +  [ 30 x8_5 * x3_6 ]/2 +  [ 30 x3_6 * x8_7 ]/2 +  [ 30 x8_6 * x3_7 ]/2 +  [ 30 x3_7 * x8_8 ]/2 +  [ 30 x8_7 * x3_8 ]/2 +  [ 30 x3_8 * x8_9 ]/2 +  [ 30 x8_8 * x3_9 ]/2 +  [ 30 x4_1 * x5_2 ]/2 +  [ 30 x5_1 * x4_2 ]/2 +  [ 30 x4_2 * x5_3 ]/2 +  [ 30 x5_2 * x4_3 ]/2 +  [ 30 x4_3 * x5_4 ]/2 +  [ 30 x5_3 * x4_4 ]/2 +  [ 30 x4_4 * x5_5 ]/2 +  [ 30 x5_4 * x4_5 ]/2 +  [ 30 x4_5 * x5_6 ]/2 +  [ 30 x5_5 * x4_6 ]/2 +  [ 30 x4_6 * x5_7 ]/2 +  [ 30 x5_6 * x4_7 ]/2 +  [ 30 x4_7 * x5_8 ]/2 +  [ 30 x5_7 * x4_8 ]/2 +  [ 30 x4_8 * x5_9 ]/2 +  [ 30 x5_8 * x4_9 ]/2 +  [ 6 x4_1 * x6_2 ]/2 +  [ 6 x6_1 * x4_2 ]/2 +  [ 6 x4_2 * x6_3 ]/2 +  [ 6 x6_2 * x4_3 ]/2 +  [ 6 x4_3 * x6_4 ]/2 +  [ 6 x6_3 * x4_4 ]/2 +  [ 6 x4_4 * x6_5 ]/2 +  [ 6 x6_4 * x4_5 ]/2 +  [ 6 x4_5 * x6_6 ]/2 +  [ 6 x6_5 * x4_6 ]/2 +  [ 6 x4_6 * x6_7 ]/2 +  [ 6 x6_6 * x4_7 ]/2 +  [ 6 x4_7 * x6_8 ]/2 +  [ 6 x6_7 * x4_8 ]/2 +  [ 6 x4_8 * x6_9 ]/2 +  [ 6 x6_8 * x4_9 ]/2 +  [ 6 x4_1 * x7_2 ]/2 +  [ 6 x7_1 * x4_2 ]/2 +  [ 6 x4_2 * x7_3 ]/2 +  [ 6 x7_2 * x4_3 ]/2 +  [ 6 x4_3 * x7_4 ]/2 +  [ 6 x7_3 * x4_4 ]/2 +  [ 6 x4_4 * x7_5 ]/2 +  [ 6 x7_4 * x4_5 ]/2 +  [ 6 x4_5 * x7_6 ]/2 +  [ 6 x7_5 * x4_6 ]/2 +  [ 6 x4_6 * x7_7 ]/2 +  [ 6 x7_6 * x4_7 ]/2 +  [ 6 x4_7 * x7_8 ]/2 +  [ 6 x7_7 * x4_8 ]/2 +  [ 6 x4_8 * x7_9 ]/2 +  [ 6 x7_8 * x4_9 ]/2 +  [ 14 x4_1 * x8_2 ]/2 +  [ 14 x8_1 * x4_2 ]/2 +  [ 14 x4_2 * x8_3 ]/2 +  [ 14 x8_2 * x4_3 ]/2 +  [ 14 x4_3 * x8_4 ]/2 +  [ 14 x8_3 * x4_4 ]/2 +  [ 14 x4_4 * x8_5 ]/2 +  [ 14 x8_4 * x4_5 ]/2 +  [ 14 x4_5 * x8_6 ]/2 +  [ 14 x8_5 * x4_6 ]/2 +  [ 14 x4_6 * x8_7 ]/2 +  [ 14 x8_6 * x4_7 ]/2 +  [ 14 x4_7 * x8_8 ]/2 +  [ 14 x8_7 * x4_8 ]/2 +  [ 14 x4_8 * x8_9 ]/2 +  [ 14 x8_8 * x4_9 ]/2 +  [ 10 x5_1 * x6_2 ]/2 +  [ 10 x6_1 * x5_2 ]/2 +  [ 10 x5_2 * x6_3 ]/2 +  [ 10 x6_2 * x5_3 ]/2 +  [ 10 x5_3 * x6_4 ]/2 +  [ 10 x6_3 * x5_4 ]/2 +  [ 10 x5_4 * x6_5 ]/2 +  [ 10 x6_4 * x5_5 ]/2 +  [ 10 x5_5 * x6_6 ]/2 +  [ 10 x6_5 * x5_6 ]/2 +  [ 10 x5_6 * x6_7 ]/2 +  [ 10 x6_6 * x5_7 ]/2 +  [ 10 x5_7 * x6_8 ]/2 +  [ 10 x6_7 * x5_8 ]/2 +  [ 10 x5_8 * x6_9 ]/2 +  [ 10 x6_8 * x5_9 ]/2 +  [ 30 x5_1 * x7_2 ]/2 +  [ 30 x7_1 * x5_2 ]/2 +  [ 30 x5_2 * x7_3 ]/2 +  [ 30 x7_2 * x5_3 ]/2 +  [ 30 x5_3 * x7_4 ]/2 +  [ 30 x7_3 * x5_4 ]/2 +  [ 30 x5_4 * x7_5 ]/2 +  [ 30 x7_4 * x5_5 ]/2 +  [ 30 x5_5 * x7_6 ]/2 +  [ 30 x7_5 * x5_6 ]/2 +  [ 30 x5_6 * x7_7 ]/2 +  [ 30 x7_6 * x5_7 ]/2 +  [ 30 x5_7 * x7_8 ]/2 +  [ 30 x7_7 * x5_8 ]/2 +  [ 30 x5_8 * x7_9 ]/2 +  [ 30 x7_8 * x5_9 ]/2 +  [ 6 x5_1 * x8_2 ]/2 +  [ 6 x8_1 * x5_2 ]/2 +  [ 6 x5_2 * x8_3 ]/2 +  [ 6 x8_2 * x5_3 ]/2 +  [ 6 x5_3 * x8_4 ]/2 +  [ 6 x8_3 * x5_4 ]/2 +  [ 6 x5_4 * x8_5 ]/2 +  [ 6 x8_4 * x5_5 ]/2 +  [ 6 x5_5 * x8_6 ]/2 +  [ 6 x8_5 * x5_6 ]/2 +  [ 6 x5_6 * x8_7 ]/2 +  [ 6 x8_6 * x5_7 ]/2 +  [ 6 x5_7 * x8_8 ]/2 +  [ 6 x8_7 * x5_8 ]/2 +  [ 6 x5_8 * x8_9 ]/2 +  [ 6 x8_8 * x5_9 ]/2 +  [ 2 x6_1 * x7_2 ]/2 +  [ 2 x7_1 * x6_2 ]/2 +  [ 2 x6_2 * x7_3 ]/2 +  [ 2 x7_2 * x6_3 ]/2 +  [ 2 x6_3 * x7_4 ]/2 +  [ 2 x7_3 * x6_4 ]/2 +  [ 2 x6_4 * x7_5 ]/2 +  [ 2 x7_4 * x6_5 ]/2 +  [ 2 x6_5 * x7_6 ]/2 +  [ 2 x7_5 * x6_6 ]/2 +  [ 2 x6_6 * x7_7 ]/2 +  [ 2 x7_6 * x6_7 ]/2 +  [ 2 x6_7 * x7_8 ]/2 +  [ 2 x7_7 * x6_8 ]/2 +  [ 2 x6_8 * x7_9 ]/2 +  [ 2 x7_8 * x6_9 ]/2 +  [ 26 x6_1 * x8_2 ]/2 +  [ 26 x8_1 * x6_2 ]/2 +  [ 26 x6_2 * x8_3 ]/2 +  [ 26 x8_2 * x6_3 ]/2 +  [ 26 x6_3 * x8_4 ]/2 +  [ 26 x8_3 * x6_4 ]/2 +  [ 26 x6_4 * x8_5 ]/2 +  [ 26 x8_4 * x6_5 ]/2 +  [ 26 x6_5 * x8_6 ]/2 +  [ 26 x8_5 * x6_6 ]/2 +  [ 26 x6_6 * x8_7 ]/2 +  [ 26 x8_6 * x6_7 ]/2 +  [ 26 x6_7 * x8_8 ]/2 +  [ 26 x8_7 * x6_8 ]/2 +  [ 26 x6_8 * x8_9 ]/2 +  [ 26 x8_8 * x6_9 ]/2 +  [ 28 x7_1 * x8_2 ]/2 +  [ 28 x8_1 * x7_2 ]/2 +  [ 28 x7_2 * x8_3 ]/2 +  [ 28 x8_2 * x7_3 ]/2 +  [ 28 x7_3 * x8_4 ]/2 +  [ 28 x8_3 * x7_4 ]/2 +  [ 28 x7_4 * x8_5 ]/2 +  [ 28 x8_4 * x7_5 ]/2 +  [ 28 x7_5 * x8_6 ]/2 +  [ 28 x8_5 * x7_6 ]/2 +  [ 28 x7_6 * x8_7 ]/2 +  [ 28 x8_6 * x7_7 ]/2 +  [ 28 x7_7 * x8_8 ]/2 +  [ 28 x8_7 * x7_8 ]/2 +  [ 28 x7_8 * x8_9 ]/2 +  [ 28 x8_8 * x7_9 ]/2
Subject To
 c1: x0_1 + x0_2 + x0_3 + x0_4 + x0_5 + x0_6 + x0_7 + x0_8 + x0_9 = 1
 c2: x1_1 + x1_2 + x1_3 + x1_4 + x1_5 + x1_6 + x1_7 + x1_8 + x1_9 = 1
 c3: x2_1 + x2_2 + x2_3 + x2_4 + x2_5 + x2_6 + x2_7 + x2_8 + x2_9 = 1
 c4: x3_1 + x3_2 + x3_3 + x3_4 + x3_5 + x3_6 + x3_7 + x3_8 + x3_9 = 1
 c5: x4_1 + x4_2 + x4_3 + x4_4 + x4_5 + x4_6 + x4_7 + x4_8 + x4_9 = 1
 c6: x5_1 + x5_2 + x5_3 + x5_4 + x5_5 + x5_6 + x5_7 + x5_8 + x5_9 = 1
 c7: x6_1 + x6_2 + x6_3 + x6_4 + x6_5 + x6_6 + x6_7 + x6_8 + x6_9 = 1
 c8: x7_1 + x7_2 + x7_3 + x7_4 + x7_5 + x7_6 + x7_7 + x7_8 + x7_9 = 1
 c9: x8_1 + x8_2 + x8_3 + x8_4 + x8_5 + x8_6 + x8_7 + x8_8 + x8_9 = 1
 c10: x0_1 + x1_1 + x2_1 + x3_1 + x4_1 + x5_1 + x6_1 + x7_1 + x8_1 = 1
 c11: x0_2 + x1_2 + x2_2 + x3_2 + x4_2 + x5_2 + x6_2 + x7_2 + x8_2 = 1
 c12: x0_3 + x1_3 + x2_3 + x3_3 + x4_3 + x5_3 + x6_3 + x7_3 + x8_3 = 1
 c13: x0_4 + x1_4 + x2_4 + x3_4 + x4_4 + x5_4 + x6_4 + x7_4 + x8_4 = 1
 c14: x0_5 + x1_5 + x2_5 + x3_5 + x4_5 + x5_5 + x6_5 + x7_5 + x8_5 = 1
 c15: x0_6 + x1_6 + x2_6 + x3_6 + x4_6 + x5_6 + x6_6 + x7_6 + x8_6 = 1
 c16: x0_7 + x1_7 + x2_7 + x3_7 + x4_7 + x5_7 + x6_7 + x7_7 + x8_7 = 1
 c17: x0_8 + x1_8 + x2_8 + x3_8 + x4_8 + x5_8 + x6_8 + x7_8 + x8_8 = 1
 c18: x0_9 + x1_9 + x2_9 + x3_9 + x4_9 + x5_9 + x6_9 + x7_9 + x8_9 = 1
 c19: x0_1 = 1
 c20: x8_9 = 1
Binary
 x0_1
 x0_2
 x0_3
 x0_4
 x0_5
 x0_6
 x0_7
 x0_8
 x0_9
 x1_1
 x1_2
 x1_3
 x1_4
 x1_5
 x1_6
 x1_7
 x1_8
 x1_9
 x2_1
 x2_2
 x2_3
 x2_4
 x2_5
 x2_6
 x2_7
 x2_8
 x2_9
 x3_1
 x3_2
 x3_3
 x3_4
 x3_5
 x3_6
 x3_7
 x3_8
 x3_9
 x4_1
 x4_2
 x4_3
 x4_4
 x4_5
 x4_6
 x4_7
 x4_8
 x4_9
 x5_1
 x5_2
 x5_3
 x5_4
 x5_5
 x5_6
 x5_7
 x5_8
 x5_9
 x6_1
 x6_2
 x6_3
 x6_4
 x6_5
 x6_6
 x6_7
 x6_8
 x6_9
 x7_1
 x7_2
 x7_3
 x7_4
 x7_5
 x7_6
 x7_7
 x7_8
 x7_9
 x8_1
 x8_2
 x8_3
 x8_4
 x8_5
 x8_6
 x8_7
 x8_8
 x8_9
End